param W_CLASS:=
1 -0.0005407360549690328
2 0.01876061293122529
3 0
4 0.03691910525497218
5 -0.03691910525497218
6 -0.03691910525497218
7 -0.02473870344150637
8 0.023141900996899625
9 -0.03691910525497218
10 0.013077924254284563
11 -0.03691910525497218
12 -0.03691910525497218
13 0.03691910525497218
14 -0.03691910525497218
15 -0.03691910525497218
16 0.03691910525497218
17 0.03691910525497218
18 0.03691910525497218
19 0.03691910525497218 ;
param B_CLASS:= 3.7851026307850533;